;; translated from ./cav12/bist_cell.vmt
;; original benchmark available at: https://es-static.fbk.eu/people/griggio/ic3ia/index.html
;; author: Alberto Griggio <griggio@fbk.eu>
(set-logic HORN)
(declare-fun state (Bool Bool Bool Real Real Real Real Real Real Real Real Real Real Real Real Real Real Real Real Real Real Real Real Real Real Real Real Real Real Real Real Real Real Real Real Real Real Real Real Real) Bool)
(assert (forall ((|_PC.2.next| Bool) (|z_ev| Real) (|z_ev.next| Real) (|tmp__19$main| Real) (|tmp__19$main.next| Real) (|d0_ev| Real) (|d0_ev.next| Real) (|b0_ev| Real) (|b0_ev.next| Real) (|d1_ev| Real) (|d1_ev.next| Real) (|__INLINE_TEMP__21$main| Real) (|__INLINE_TEMP__21$main.next| Real) (|__retres1__23$main| Real) (|__retres1__23$main.next| Real) (|b1_ev| Real) (|b1_ev.next| Real) (|b1_req_up| Real) (|b1_req_up.next| Real) (|d1_req_up| Real) (|d1_req_up.next| Real) (|tmp___0__31$main.next| Real) (|tmp___0__31$main| Real) (|z_val_t| Real) (|z_val_t.next| Real) (|__retres1__37$main.next| Real) (|__retres1__37$main| Real) (|b0_val| Real) (|b0_val.next| Real) (|__INLINE_TEMP__35$main.next| Real) (|__INLINE_TEMP__35$main| Real) (|__retres2__68$main.next| Real) (|__retres2__68$main| Real) (|z_req_up| Real) (|z_req_up.next| Real) (|s3__46$main.next| Real) (|s3__46$main| Real) (|__retres1__72$main.next| Real) (|__retres1__72$main| Real) (|__INLINE_TEMP__70$main.next| Real) (|__INLINE_TEMP__70$main| Real) (|comp_m1_st| Real) (|comp_m1_st.next| Real) (|tmp__56$main.next| Real) (|tmp__56$main| Real) (|d1_val| Real) (|d1_val.next| Real) (|tmp__66$main.next| Real) (|tmp__66$main| Real) (|s2__44$main.next| Real) (|s2__44$main| Real) (|__INLINE_TEMP__64$main.next| Real) (|__INLINE_TEMP__64$main| Real) (|z_val| Real) (|z_val.next| Real) (|__retres1__60$main.next| Real) (|__retres1__60$main| Real) (|__RET__$main.next| Real) (|__RET__$main| Real) (|tmp__29$main.next| Real) (|tmp__29$main| Real) (|__INLINE_TEMP__58$main.next| Real) (|__INLINE_TEMP__58$main| Real) (|b0_req_up| Real) (|b0_req_up.next| Real) (|tmp__8$main.next| Real) (|tmp__8$main| Real) (|s1__42$main.next| Real) (|s1__42$main| Real) (|b1_val| Real) (|b1_val.next| Real) (|d0_req_up| Real) (|d0_req_up.next| Real) (|d0_val| Real) (|d0_val.next| Real) (|s2__44$main.SSA.1.ssa| Real) (|__NONDET__33__20$main#0| Real) (|b0_ev.SSA.1.ssa| Real) (|b1_ev.SSA.1.ssa| Real) (|d0_ev.SSA.1.ssa| Real) (|d1_ev.SSA.1.ssa| Real) (|z_ev.SSA.1.ssa| Real) (|b0_ev.SSA.2.ssa| Real) (|b1_ev.SSA.2.ssa| Real) (|d0_ev.SSA.2.ssa| Real) (|d1_ev.SSA.2.ssa| Real) (|z_ev.SSA.2.ssa| Real) (|comp_m1_st.SSA.1.ssa| Real) (|_PC.1.next| Bool) (|_PC.0| Bool) (|_PC.0.next| Bool) (|_PC.2| Bool) (|_PC.1| Bool)) (=> (let ((.def_15 (not _PC.2)))
(let ((.def_12 (not _PC.1)))
(let ((.def_10 (not _PC.0)))
(let ((.def_13 (and .def_10 .def_12)))
(let ((.def_16 (and .def_13 .def_15)))
.def_16))))) (state |_PC.0| |_PC.1| |_PC.2| |tmp___0__31$main| |__retres1__37$main| |__INLINE_TEMP__35$main| |__retres2__68$main| |s3__46$main| |__retres1__72$main| |__INLINE_TEMP__70$main| |tmp__56$main| |tmp__66$main| |s2__44$main| |__INLINE_TEMP__64$main| |__retres1__60$main| |__RET__$main| |tmp__29$main| |__INLINE_TEMP__58$main| |tmp__8$main| |s1__42$main| |d0_val| |d0_req_up| |b1_val| |b0_req_up| |z_val| |d1_val| |comp_m1_st| |z_req_up| |b0_val| |z_val_t| |d1_req_up| |b1_req_up| |b1_ev| |__retres1__23$main| |__INLINE_TEMP__21$main| |d1_ev| |b0_ev| |d0_ev| |tmp__19$main| |z_ev|))))
(assert (forall ((|_PC.2.next| Bool) (|z_ev| Real) (|z_ev.next| Real) (|tmp__19$main| Real) (|tmp__19$main.next| Real) (|d0_ev| Real) (|d0_ev.next| Real) (|b0_ev| Real) (|b0_ev.next| Real) (|d1_ev| Real) (|d1_ev.next| Real) (|__INLINE_TEMP__21$main| Real) (|__INLINE_TEMP__21$main.next| Real) (|__retres1__23$main| Real) (|__retres1__23$main.next| Real) (|b1_ev| Real) (|b1_ev.next| Real) (|b1_req_up| Real) (|b1_req_up.next| Real) (|d1_req_up| Real) (|d1_req_up.next| Real) (|tmp___0__31$main.next| Real) (|tmp___0__31$main| Real) (|z_val_t| Real) (|z_val_t.next| Real) (|__retres1__37$main.next| Real) (|__retres1__37$main| Real) (|b0_val| Real) (|b0_val.next| Real) (|__INLINE_TEMP__35$main.next| Real) (|__INLINE_TEMP__35$main| Real) (|__retres2__68$main.next| Real) (|__retres2__68$main| Real) (|z_req_up| Real) (|z_req_up.next| Real) (|s3__46$main.next| Real) (|s3__46$main| Real) (|__retres1__72$main.next| Real) (|__retres1__72$main| Real) (|__INLINE_TEMP__70$main.next| Real) (|__INLINE_TEMP__70$main| Real) (|comp_m1_st| Real) (|comp_m1_st.next| Real) (|tmp__56$main.next| Real) (|tmp__56$main| Real) (|d1_val| Real) (|d1_val.next| Real) (|tmp__66$main.next| Real) (|tmp__66$main| Real) (|s2__44$main.next| Real) (|s2__44$main| Real) (|__INLINE_TEMP__64$main.next| Real) (|__INLINE_TEMP__64$main| Real) (|z_val| Real) (|z_val.next| Real) (|__retres1__60$main.next| Real) (|__retres1__60$main| Real) (|__RET__$main.next| Real) (|__RET__$main| Real) (|tmp__29$main.next| Real) (|tmp__29$main| Real) (|__INLINE_TEMP__58$main.next| Real) (|__INLINE_TEMP__58$main| Real) (|b0_req_up| Real) (|b0_req_up.next| Real) (|tmp__8$main.next| Real) (|tmp__8$main| Real) (|s1__42$main.next| Real) (|s1__42$main| Real) (|b1_val| Real) (|b1_val.next| Real) (|d0_req_up| Real) (|d0_req_up.next| Real) (|d0_val| Real) (|d0_val.next| Real) (|s2__44$main.SSA.1.ssa| Real) (|__NONDET__33__20$main#0| Real) (|b0_ev.SSA.1.ssa| Real) (|b1_ev.SSA.1.ssa| Real) (|d0_ev.SSA.1.ssa| Real) (|d1_ev.SSA.1.ssa| Real) (|z_ev.SSA.1.ssa| Real) (|b0_ev.SSA.2.ssa| Real) (|b1_ev.SSA.2.ssa| Real) (|d0_ev.SSA.2.ssa| Real) (|d1_ev.SSA.2.ssa| Real) (|z_ev.SSA.2.ssa| Real) (|comp_m1_st.SSA.1.ssa| Real) (|_PC.1.next| Bool) (|_PC.0| Bool) (|_PC.0.next| Bool) (|_PC.2| Bool) (|_PC.1| Bool)) (=> (and (state |_PC.0| |_PC.1| |_PC.2| |tmp___0__31$main| |__retres1__37$main| |__INLINE_TEMP__35$main| |__retres2__68$main| |s3__46$main| |__retres1__72$main| |__INLINE_TEMP__70$main| |tmp__56$main| |tmp__66$main| |s2__44$main| |__INLINE_TEMP__64$main| |__retres1__60$main| |__RET__$main| |tmp__29$main| |__INLINE_TEMP__58$main| |tmp__8$main| |s1__42$main| |d0_val| |d0_req_up| |b1_val| |b0_req_up| |z_val| |d1_val| |comp_m1_st| |z_req_up| |b0_val| |z_val_t| |d1_req_up| |b1_req_up| |b1_ev| |__retres1__23$main| |__INLINE_TEMP__21$main| |d1_ev| |b0_ev| |d0_ev| |tmp__19$main| |z_ev|) (let ((.def_12 (not _PC.1)))
(let ((.def_274 (and _PC.0 .def_12)))
(let ((.def_738 (and _PC.2 .def_274)))
(let ((.def_268 (not _PC.1.next)))
(let ((.def_270 (and .def_268 _PC.0.next)))
(let ((.def_734 (and _PC.2.next .def_270)))
(let ((.def_739 (and .def_734 .def_738)))
(let ((.def_352 (= z_ev.next z_ev)))
(let ((.def_341 (= tmp__19$main.next tmp__19$main)))
(let ((.def_327 (= d0_ev.next d0_ev)))
(let ((.def_319 (= b0_ev.next b0_ev)))
(let ((.def_313 (= d1_ev.next d1_ev)))
(let ((.def_310 (= __INLINE_TEMP__21$main.next __INLINE_TEMP__21$main)))
(let ((.def_306 (= __retres1__23$main.next __retres1__23$main)))
(let ((.def_304 (= b1_ev.next b1_ev)))
(let ((.def_307 (and .def_304 .def_306)))
(let ((.def_302 (= b1_req_up.next b1_req_up)))
(let ((.def_308 (and .def_302 .def_307)))
(let ((.def_311 (and .def_308 .def_310)))
(let ((.def_314 (and .def_311 .def_313)))
(let ((.def_300 (= d1_req_up.next d1_req_up)))
(let ((.def_315 (and .def_300 .def_314)))
(let ((.def_199 (= tmp___0__31$main tmp___0__31$main.next)))
(let ((.def_316 (and .def_199 .def_315)))
(let ((.def_298 (= z_val_t.next z_val_t)))
(let ((.def_317 (and .def_298 .def_316)))
(let ((.def_320 (and .def_317 .def_319)))
(let ((.def_203 (= __retres1__37$main __retres1__37$main.next)))
(let ((.def_321 (and .def_203 .def_320)))
(let ((.def_296 (= b0_val.next b0_val)))
(let ((.def_322 (and .def_296 .def_321)))
(let ((.def_207 (= __INLINE_TEMP__35$main __INLINE_TEMP__35$main.next)))
(let ((.def_323 (and .def_207 .def_322)))
(let ((.def_211 (= __retres2__68$main __retres2__68$main.next)))
(let ((.def_324 (and .def_211 .def_323)))
(let ((.def_294 (= z_req_up.next z_req_up)))
(let ((.def_325 (and .def_294 .def_324)))
(let ((.def_328 (and .def_325 .def_327)))
(let ((.def_215 (= s3__46$main s3__46$main.next)))
(let ((.def_329 (and .def_215 .def_328)))
(let ((.def_219 (= __retres1__72$main __retres1__72$main.next)))
(let ((.def_330 (and .def_219 .def_329)))
(let ((.def_223 (= __INLINE_TEMP__70$main __INLINE_TEMP__70$main.next)))
(let ((.def_331 (and .def_223 .def_330)))
(let ((.def_292 (= comp_m1_st.next comp_m1_st)))
(let ((.def_332 (and .def_292 .def_331)))
(let ((.def_227 (= tmp__56$main tmp__56$main.next)))
(let ((.def_333 (and .def_227 .def_332)))
(let ((.def_290 (= d1_val.next d1_val)))
(let ((.def_334 (and .def_290 .def_333)))
(let ((.def_231 (= tmp__66$main tmp__66$main.next)))
(let ((.def_335 (and .def_231 .def_334)))
(let ((.def_235 (= s2__44$main s2__44$main.next)))
(let ((.def_336 (and .def_235 .def_335)))
(let ((.def_239 (= __INLINE_TEMP__64$main __INLINE_TEMP__64$main.next)))
(let ((.def_337 (and .def_239 .def_336)))
(let ((.def_288 (= z_val.next z_val)))
(let ((.def_338 (and .def_288 .def_337)))
(let ((.def_243 (= __retres1__60$main __retres1__60$main.next)))
(let ((.def_339 (and .def_243 .def_338)))
(let ((.def_342 (and .def_339 .def_341)))
(let ((.def_247 (= __RET__$main __RET__$main.next)))
(let ((.def_343 (and .def_247 .def_342)))
(let ((.def_251 (= tmp__29$main tmp__29$main.next)))
(let ((.def_344 (and .def_251 .def_343)))
(let ((.def_255 (= __INLINE_TEMP__58$main __INLINE_TEMP__58$main.next)))
(let ((.def_345 (and .def_255 .def_344)))
(let ((.def_286 (= b0_req_up.next b0_req_up)))
(let ((.def_346 (and .def_286 .def_345)))
(let ((.def_259 (= tmp__8$main tmp__8$main.next)))
(let ((.def_347 (and .def_259 .def_346)))
(let ((.def_263 (= s1__42$main s1__42$main.next)))
(let ((.def_348 (and .def_263 .def_347)))
(let ((.def_284 (= b1_val.next b1_val)))
(let ((.def_349 (and .def_284 .def_348)))
(let ((.def_282 (= d0_req_up.next d0_req_up)))
(let ((.def_350 (and .def_282 .def_349)))
(let ((.def_353 (and .def_350 .def_352)))
(let ((.def_280 (= d0_val.next d0_val)))
(let ((.def_354 (and .def_280 .def_353)))
(let ((.def_735 (and .def_354 .def_734)))
(let ((.def_10 (not _PC.0)))
(let ((.def_13 (and .def_10 .def_12)))
(let ((.def_733 (and .def_13 _PC.2)))
(let ((.def_736 (and .def_733 .def_735)))
(let ((.def_699 (= comp_m1_st.next (to_real 2))))
(let ((.def_678 (= s2__44$main.next (to_real 0))))
(let ((.def_694 (not .def_678)))
(let ((.def_658 (= s2__44$main.SSA.1.ssa (to_real 0))))
(let ((.def_672 (not .def_658)))
(let ((.def_620 (= tmp__29$main.next (to_real 0))))
(let ((.def_635 (not .def_620)))
(let ((.def_618 (= tmp__29$main.next |__NONDET__33__20$main#0|)))
(let ((.def_382 (= tmp___0__31$main.next (to_real 0))))
(let ((.def_606 (not .def_382)))
(let ((.def_380 (= tmp___0__31$main.next __INLINE_TEMP__35$main.next)))
(let ((.def_378 (= __retres1__37$main.next __INLINE_TEMP__35$main.next)))
(let ((.def_375 (= __retres1__37$main.next (to_real 1))))
(let ((.def_372 (= comp_m1_st (to_real 0))))
(let ((.def_376 (and .def_372 .def_375)))
(let ((.def_373 (not .def_372)))
(let ((.def_371 (= __retres1__37$main.next (to_real 0))))
(let ((.def_374 (and .def_371 .def_373)))
(let ((.def_377 (or .def_374 .def_376)))
(let ((.def_379 (and .def_377 .def_378)))
(let ((.def_381 (and .def_379 .def_380)))
(let ((.def_607 (and .def_381 .def_606)))
(let ((.def_616 (and .def_372 .def_607)))
(let ((.def_619 (and .def_616 .def_618)))
(let ((.def_636 (and .def_619 .def_635)))
(let ((.def_633 (= b0_val (to_real 0))))
(let ((.def_647 (and .def_633 .def_636)))
(let ((.def_640 (= s1__42$main.next (to_real 1))))
(let ((.def_648 (and .def_640 .def_647)))
(let ((.def_638 (= d1_val (to_real 0))))
(let ((.def_643 (not .def_638)))
(let ((.def_634 (not .def_633)))
(let ((.def_637 (and .def_634 .def_636)))
(let ((.def_644 (and .def_637 .def_643)))
(let ((.def_642 (= s1__42$main.next (to_real 0))))
(let ((.def_645 (and .def_642 .def_644)))
(let ((.def_639 (and .def_637 .def_638)))
(let ((.def_641 (and .def_639 .def_640)))
(let ((.def_646 (or .def_641 .def_645)))
(let ((.def_649 (or .def_646 .def_648)))
(let ((.def_631 (= d0_val (to_real 0))))
(let ((.def_661 (and .def_631 .def_649)))
(let ((.def_654 (= s2__44$main.SSA.1.ssa (to_real 1))))
(let ((.def_662 (and .def_654 .def_661)))
(let ((.def_651 (= b1_val (to_real 0))))
(let ((.def_656 (not .def_651)))
(let ((.def_632 (not .def_631)))
(let ((.def_650 (and .def_632 .def_649)))
(let ((.def_657 (and .def_650 .def_656)))
(let ((.def_659 (and .def_657 .def_658)))
(let ((.def_652 (and .def_650 .def_651)))
(let ((.def_655 (and .def_652 .def_654)))
(let ((.def_660 (or .def_655 .def_659)))
(let ((.def_663 (or .def_660 .def_662)))
(let ((.def_673 (and .def_663 .def_672)))
(let ((.def_669 (= s3__46$main.next (to_real 0))))
(let ((.def_674 (and .def_669 .def_673)))
(let ((.def_667 (not .def_642)))
(let ((.def_664 (and .def_658 .def_663)))
(let ((.def_668 (and .def_664 .def_667)))
(let ((.def_670 (and .def_668 .def_669)))
(let ((.def_665 (and .def_642 .def_664)))
(let ((.def_630 (= s3__46$main.next (to_real 1))))
(let ((.def_666 (and .def_630 .def_665)))
(let ((.def_671 (or .def_666 .def_670)))
(let ((.def_675 (or .def_671 .def_674)))
(let ((.def_684 (and .def_658 .def_675)))
(let ((.def_685 (and .def_678 .def_684)))
(let ((.def_676 (and .def_672 .def_675)))
(let ((.def_681 (and .def_667 .def_676)))
(let ((.def_680 (= s2__44$main.next (to_real 1))))
(let ((.def_682 (and .def_680 .def_681)))
(let ((.def_677 (and .def_642 .def_676)))
(let ((.def_679 (and .def_677 .def_678)))
(let ((.def_683 (or .def_679 .def_682)))
(let ((.def_686 (or .def_683 .def_685)))
(let ((.def_695 (and .def_686 .def_694)))
(let ((.def_26 (= z_val_t.next (to_real 0))))
(let ((.def_696 (and .def_26 .def_695)))
(let ((.def_690 (not .def_669)))
(let ((.def_687 (and .def_678 .def_686)))
(let ((.def_691 (and .def_687 .def_690)))
(let ((.def_692 (and .def_26 .def_691)))
(let ((.def_688 (and .def_669 .def_687)))
(let ((.def_629 (= z_val_t.next (to_real 1))))
(let ((.def_689 (and .def_629 .def_688)))
(let ((.def_693 (or .def_689 .def_692)))
(let ((.def_697 (or .def_693 .def_696)))
(let ((.def_628 (= z_req_up.next (to_real 1))))
(let ((.def_698 (and .def_628 .def_697)))
(let ((.def_700 (and .def_698 .def_699)))
(let ((.def_621 (and .def_619 .def_620)))
(let ((.def_622 (and .def_292 .def_621)))
(let ((.def_623 (and .def_263 .def_622)))
(let ((.def_624 (and .def_294 .def_623)))
(let ((.def_625 (and .def_215 .def_624)))
(let ((.def_626 (and .def_235 .def_625)))
(let ((.def_627 (and .def_298 .def_626)))
(let ((.def_701 (or .def_627 .def_700)))
(let ((.def_608 (and .def_373 .def_607)))
(let ((.def_609 (and .def_292 .def_608)))
(let ((.def_610 (and .def_263 .def_609)))
(let ((.def_611 (and .def_251 .def_610)))
(let ((.def_612 (and .def_294 .def_611)))
(let ((.def_613 (and .def_215 .def_612)))
(let ((.def_614 (and .def_235 .def_613)))
(let ((.def_615 (and .def_298 .def_614)))
(let ((.def_702 (or .def_615 .def_701)))
(let ((.def_703 (and .def_304 .def_702)))
(let ((.def_704 (and .def_306 .def_703)))
(let ((.def_705 (and .def_302 .def_704)))
(let ((.def_706 (and .def_310 .def_705)))
(let ((.def_707 (and .def_313 .def_706)))
(let ((.def_708 (and .def_300 .def_707)))
(let ((.def_709 (and .def_319 .def_708)))
(let ((.def_710 (and .def_296 .def_709)))
(let ((.def_711 (and .def_211 .def_710)))
(let ((.def_712 (and .def_327 .def_711)))
(let ((.def_713 (and .def_219 .def_712)))
(let ((.def_714 (and .def_223 .def_713)))
(let ((.def_715 (and .def_227 .def_714)))
(let ((.def_716 (and .def_290 .def_715)))
(let ((.def_717 (and .def_231 .def_716)))
(let ((.def_718 (and .def_239 .def_717)))
(let ((.def_719 (and .def_288 .def_718)))
(let ((.def_720 (and .def_243 .def_719)))
(let ((.def_721 (and .def_341 .def_720)))
(let ((.def_722 (and .def_247 .def_721)))
(let ((.def_723 (and .def_255 .def_722)))
(let ((.def_724 (and .def_286 .def_723)))
(let ((.def_725 (and .def_259 .def_724)))
(let ((.def_726 (and .def_284 .def_725)))
(let ((.def_727 (and .def_282 .def_726)))
(let ((.def_728 (and .def_352 .def_727)))
(let ((.def_729 (and .def_280 .def_728)))
(let ((.def_276 (not _PC.0.next)))
(let ((.def_277 (and _PC.1.next .def_276)))
(let ((.def_266 (not _PC.2.next)))
(let ((.def_278 (and .def_266 .def_277)))
(let ((.def_730 (and .def_278 .def_729)))
(let ((.def_584 (and .def_10 _PC.1)))
(let ((.def_15 (not _PC.2)))
(let ((.def_585 (and .def_15 .def_584)))
(let ((.def_731 (and .def_585 .def_730)))
(let ((.def_601 (and .def_268 .def_276)))
(let ((.def_602 (and _PC.2.next .def_601)))
(let ((.def_24 (= z_val.next (to_real 0))))
(let ((.def_590 (not .def_24)))
(let ((.def_572 (= tmp__8$main.next (to_real 0))))
(let ((.def_588 (not .def_572)))
(let ((.def_570 (= __INLINE_TEMP__64$main.next tmp__8$main.next)))
(let ((.def_568 (= __retres2__68$main.next __INLINE_TEMP__64$main.next)))
(let ((.def_560 (= tmp__66$main.next (to_real 0))))
(let ((.def_564 (not .def_560)))
(let ((.def_558 (= __INLINE_TEMP__70$main.next tmp__66$main.next)))
(let ((.def_556 (= __retres1__72$main.next __INLINE_TEMP__70$main.next)))
(let ((.def_518 (= tmp__56$main.next (to_real 0))))
(let ((.def_521 (not .def_518)))
(let ((.def_516 (= tmp__56$main.next __INLINE_TEMP__58$main.next)))
(let ((.def_514 (= __retres1__60$main.next __INLINE_TEMP__58$main.next)))
(let ((.def_464 (= z_val.next z_val_t)))
(let ((.def_458 (= z_val z_val_t)))
(let ((.def_462 (not .def_458)))
(let ((.def_441 (= d1_val (to_real 1))))
(let ((.def_445 (not .def_441)))
(let ((.def_424 (= d0_val (to_real 1))))
(let ((.def_428 (not .def_424)))
(let ((.def_407 (= b1_val (to_real 1))))
(let ((.def_411 (not .def_407)))
(let ((.def_390 (= b0_val (to_real 1))))
(let ((.def_394 (not .def_390)))
(let ((.def_383 (and .def_381 .def_382)))
(let ((.def_369 (= b0_req_up (to_real 1))))
(let ((.def_389 (and .def_369 .def_383)))
(let ((.def_395 (and .def_389 .def_394)))
(let ((.def_34 (= b0_val.next (to_real 1))))
(let ((.def_396 (and .def_34 .def_395)))
(let ((.def_37 (= b0_ev.SSA.1.ssa (to_real 0))))
(let ((.def_397 (and .def_37 .def_396)))
(let ((.def_391 (and .def_389 .def_390)))
(let ((.def_392 (and .def_296 .def_391)))
(let ((.def_386 (= b0_ev.SSA.1.ssa b0_ev)))
(let ((.def_393 (and .def_386 .def_392)))
(let ((.def_398 (or .def_393 .def_397)))
(let ((.def_40 (= b0_req_up.next (to_real 0))))
(let ((.def_399 (and .def_40 .def_398)))
(let ((.def_370 (not .def_369)))
(let ((.def_384 (and .def_370 .def_383)))
(let ((.def_385 (and .def_286 .def_384)))
(let ((.def_387 (and .def_385 .def_386)))
(let ((.def_388 (and .def_296 .def_387)))
(let ((.def_400 (or .def_388 .def_399)))
(let ((.def_367 (= b1_req_up (to_real 1))))
(let ((.def_406 (and .def_367 .def_400)))
(let ((.def_412 (and .def_406 .def_411)))
(let ((.def_43 (= b1_val.next (to_real 1))))
(let ((.def_413 (and .def_43 .def_412)))
(let ((.def_46 (= b1_ev.SSA.1.ssa (to_real 0))))
(let ((.def_414 (and .def_46 .def_413)))
(let ((.def_408 (and .def_406 .def_407)))
(let ((.def_409 (and .def_284 .def_408)))
(let ((.def_403 (= b1_ev.SSA.1.ssa b1_ev)))
(let ((.def_410 (and .def_403 .def_409)))
(let ((.def_415 (or .def_410 .def_414)))
(let ((.def_49 (= b1_req_up.next (to_real 0))))
(let ((.def_416 (and .def_49 .def_415)))
(let ((.def_368 (not .def_367)))
(let ((.def_401 (and .def_368 .def_400)))
(let ((.def_402 (and .def_302 .def_401)))
(let ((.def_404 (and .def_402 .def_403)))
(let ((.def_405 (and .def_284 .def_404)))
(let ((.def_417 (or .def_405 .def_416)))
(let ((.def_365 (= d0_req_up (to_real 1))))
(let ((.def_423 (and .def_365 .def_417)))
(let ((.def_429 (and .def_423 .def_428)))
(let ((.def_52 (= d0_val.next (to_real 1))))
(let ((.def_430 (and .def_52 .def_429)))
(let ((.def_55 (= d0_ev.SSA.1.ssa (to_real 0))))
(let ((.def_431 (and .def_55 .def_430)))
(let ((.def_425 (and .def_423 .def_424)))
(let ((.def_426 (and .def_280 .def_425)))
(let ((.def_421 (= d0_ev.SSA.1.ssa d0_ev)))
(let ((.def_427 (and .def_421 .def_426)))
(let ((.def_432 (or .def_427 .def_431)))
(let ((.def_58 (= d0_req_up.next (to_real 0))))
(let ((.def_433 (and .def_58 .def_432)))
(let ((.def_366 (not .def_365)))
(let ((.def_418 (and .def_366 .def_417)))
(let ((.def_419 (and .def_282 .def_418)))
(let ((.def_420 (and .def_280 .def_419)))
(let ((.def_422 (and .def_420 .def_421)))
(let ((.def_434 (or .def_422 .def_433)))
(let ((.def_363 (= d1_req_up (to_real 1))))
(let ((.def_440 (and .def_363 .def_434)))
(let ((.def_446 (and .def_440 .def_445)))
(let ((.def_61 (= d1_val.next (to_real 1))))
(let ((.def_447 (and .def_61 .def_446)))
(let ((.def_64 (= d1_ev.SSA.1.ssa (to_real 0))))
(let ((.def_448 (and .def_64 .def_447)))
(let ((.def_442 (and .def_440 .def_441)))
(let ((.def_443 (and .def_290 .def_442)))
(let ((.def_438 (= d1_ev.SSA.1.ssa d1_ev)))
(let ((.def_444 (and .def_438 .def_443)))
(let ((.def_449 (or .def_444 .def_448)))
(let ((.def_67 (= d1_req_up.next (to_real 0))))
(let ((.def_450 (and .def_67 .def_449)))
(let ((.def_364 (not .def_363)))
(let ((.def_435 (and .def_364 .def_434)))
(let ((.def_436 (and .def_300 .def_435)))
(let ((.def_437 (and .def_290 .def_436)))
(let ((.def_439 (and .def_437 .def_438)))
(let ((.def_451 (or .def_439 .def_450)))
(let ((.def_361 (= z_req_up (to_real 1))))
(let ((.def_457 (and .def_361 .def_451)))
(let ((.def_463 (and .def_457 .def_462)))
(let ((.def_465 (and .def_463 .def_464)))
(let ((.def_106 (= z_ev.SSA.1.ssa (to_real 0))))
(let ((.def_466 (and .def_106 .def_465)))
(let ((.def_459 (and .def_457 .def_458)))
(let ((.def_460 (and .def_288 .def_459)))
(let ((.def_454 (= z_ev.SSA.1.ssa z_ev)))
(let ((.def_461 (and .def_454 .def_460)))
(let ((.def_467 (or .def_461 .def_466)))
(let ((.def_30 (= z_req_up.next (to_real 0))))
(let ((.def_468 (and .def_30 .def_467)))
(let ((.def_362 (not .def_361)))
(let ((.def_452 (and .def_362 .def_451)))
(let ((.def_453 (and .def_294 .def_452)))
(let ((.def_455 (and .def_453 .def_454)))
(let ((.def_456 (and .def_288 .def_455)))
(let ((.def_469 (or .def_456 .def_468)))
(let ((.def_472 (and .def_37 .def_469)))
(let ((.def_76 (= b0_ev.SSA.2.ssa (to_real 1))))
(let ((.def_473 (and .def_76 .def_472)))
(let ((.def_70 (not .def_37)))
(let ((.def_470 (and .def_70 .def_469)))
(let ((.def_73 (= b0_ev.SSA.1.ssa b0_ev.SSA.2.ssa)))
(let ((.def_471 (and .def_73 .def_470)))
(let ((.def_474 (or .def_471 .def_473)))
(let ((.def_477 (and .def_46 .def_474)))
(let ((.def_85 (= b1_ev.SSA.2.ssa (to_real 1))))
(let ((.def_478 (and .def_85 .def_477)))
(let ((.def_79 (not .def_46)))
(let ((.def_475 (and .def_79 .def_474)))
(let ((.def_82 (= b1_ev.SSA.1.ssa b1_ev.SSA.2.ssa)))
(let ((.def_476 (and .def_82 .def_475)))
(let ((.def_479 (or .def_476 .def_478)))
(let ((.def_482 (and .def_55 .def_479)))
(let ((.def_94 (= d0_ev.SSA.2.ssa (to_real 1))))
(let ((.def_483 (and .def_94 .def_482)))
(let ((.def_88 (not .def_55)))
(let ((.def_480 (and .def_88 .def_479)))
(let ((.def_91 (= d0_ev.SSA.1.ssa d0_ev.SSA.2.ssa)))
(let ((.def_481 (and .def_91 .def_480)))
(let ((.def_484 (or .def_481 .def_483)))
(let ((.def_487 (and .def_64 .def_484)))
(let ((.def_103 (= d1_ev.SSA.2.ssa (to_real 1))))
(let ((.def_488 (and .def_103 .def_487)))
(let ((.def_97 (not .def_64)))
(let ((.def_485 (and .def_97 .def_484)))
(let ((.def_100 (= d1_ev.SSA.1.ssa d1_ev.SSA.2.ssa)))
(let ((.def_486 (and .def_100 .def_485)))
(let ((.def_489 (or .def_486 .def_488)))
(let ((.def_492 (and .def_106 .def_489)))
(let ((.def_113 (= z_ev.SSA.2.ssa (to_real 1))))
(let ((.def_493 (and .def_113 .def_492)))
(let ((.def_107 (not .def_106)))
(let ((.def_490 (and .def_107 .def_489)))
(let ((.def_110 (= z_ev.SSA.1.ssa z_ev.SSA.2.ssa)))
(let ((.def_491 (and .def_110 .def_490)))
(let ((.def_494 (or .def_491 .def_493)))
(let ((.def_116 (not .def_76)))
(let ((.def_495 (and .def_116 .def_494)))
(let ((.def_125 (not .def_85)))
(let ((.def_502 (and .def_125 .def_495)))
(let ((.def_130 (not .def_94)))
(let ((.def_506 (and .def_130 .def_502)))
(let ((.def_136 (not .def_103)))
(let ((.def_511 (and .def_136 .def_506)))
(let ((.def_510 (= __retres1__60$main.next (to_real 0))))
(let ((.def_512 (and .def_510 .def_511)))
(let ((.def_507 (and .def_103 .def_506)))
(let ((.def_497 (= __retres1__60$main.next (to_real 1))))
(let ((.def_508 (and .def_497 .def_507)))
(let ((.def_503 (and .def_94 .def_502)))
(let ((.def_504 (and .def_497 .def_503)))
(let ((.def_499 (and .def_76 .def_494)))
(let ((.def_500 (and .def_497 .def_499)))
(let ((.def_496 (and .def_85 .def_495)))
(let ((.def_498 (and .def_496 .def_497)))
(let ((.def_501 (or .def_498 .def_500)))
(let ((.def_505 (or .def_501 .def_504)))
(let ((.def_509 (or .def_505 .def_508)))
(let ((.def_513 (or .def_509 .def_512)))
(let ((.def_515 (and .def_513 .def_514)))
(let ((.def_517 (and .def_515 .def_516)))
(let ((.def_522 (and .def_517 .def_521)))
(let ((.def_153 (= comp_m1_st.next (to_real 0))))
(let ((.def_523 (and .def_153 .def_522)))
(let ((.def_519 (and .def_517 .def_518)))
(let ((.def_520 (and .def_292 .def_519)))
(let ((.def_524 (or .def_520 .def_523)))
(let ((.def_527 (and .def_76 .def_524)))
(let ((.def_161 (= b0_ev.next (to_real 2))))
(let ((.def_528 (and .def_161 .def_527)))
(let ((.def_525 (and .def_116 .def_524)))
(let ((.def_158 (= b0_ev.SSA.2.ssa b0_ev.next)))
(let ((.def_526 (and .def_158 .def_525)))
(let ((.def_529 (or .def_526 .def_528)))
(let ((.def_532 (and .def_85 .def_529)))
(let ((.def_169 (= b1_ev.next (to_real 2))))
(let ((.def_533 (and .def_169 .def_532)))
(let ((.def_530 (and .def_125 .def_529)))
(let ((.def_166 (= b1_ev.SSA.2.ssa b1_ev.next)))
(let ((.def_531 (and .def_166 .def_530)))
(let ((.def_534 (or .def_531 .def_533)))
(let ((.def_537 (and .def_94 .def_534)))
(let ((.def_177 (= d0_ev.next (to_real 2))))
(let ((.def_538 (and .def_177 .def_537)))
(let ((.def_535 (and .def_130 .def_534)))
(let ((.def_174 (= d0_ev.SSA.2.ssa d0_ev.next)))
(let ((.def_536 (and .def_174 .def_535)))
(let ((.def_539 (or .def_536 .def_538)))
(let ((.def_542 (and .def_103 .def_539)))
(let ((.def_185 (= d1_ev.next (to_real 2))))
(let ((.def_543 (and .def_185 .def_542)))
(let ((.def_540 (and .def_136 .def_539)))
(let ((.def_182 (= d1_ev.SSA.2.ssa d1_ev.next)))
(let ((.def_541 (and .def_182 .def_540)))
(let ((.def_544 (or .def_541 .def_543)))
(let ((.def_547 (and .def_113 .def_544)))
(let ((.def_194 (= z_ev.next (to_real 2))))
(let ((.def_548 (and .def_194 .def_547)))
(let ((.def_188 (not .def_113)))
(let ((.def_545 (and .def_188 .def_544)))
(let ((.def_191 (= z_ev.SSA.2.ssa z_ev.next)))
(let ((.def_546 (and .def_191 .def_545)))
(let ((.def_549 (or .def_546 .def_548)))
(let ((.def_553 (and .def_153 .def_549)))
(let ((.def_552 (= __retres1__72$main.next (to_real 1))))
(let ((.def_554 (and .def_552 .def_553)))
(let ((.def_360 (not .def_153)))
(let ((.def_550 (and .def_360 .def_549)))
(let ((.def_359 (= __retres1__72$main.next (to_real 0))))
(let ((.def_551 (and .def_359 .def_550)))
(let ((.def_555 (or .def_551 .def_554)))
(let ((.def_557 (and .def_555 .def_556)))
(let ((.def_559 (and .def_557 .def_558)))
(let ((.def_565 (and .def_559 .def_564)))
(let ((.def_563 (= __retres2__68$main.next (to_real 0))))
(let ((.def_566 (and .def_563 .def_565)))
(let ((.def_561 (and .def_559 .def_560)))
(let ((.def_358 (= __retres2__68$main.next (to_real 1))))
(let ((.def_562 (and .def_358 .def_561)))
(let ((.def_567 (or .def_562 .def_566)))
(let ((.def_569 (and .def_567 .def_568)))
(let ((.def_571 (and .def_569 .def_570)))
(let ((.def_589 (and .def_571 .def_588)))
(let ((.def_591 (and .def_589 .def_590)))
(let ((.def_592 (and .def_306 .def_591)))
(let ((.def_593 (and .def_310 .def_592)))
(let ((.def_594 (and .def_298 .def_593)))
(let ((.def_595 (and .def_215 .def_594)))
(let ((.def_596 (and .def_235 .def_595)))
(let ((.def_597 (and .def_341 .def_596)))
(let ((.def_598 (and .def_247 .def_597)))
(let ((.def_599 (and .def_251 .def_598)))
(let ((.def_600 (and .def_263 .def_599)))
(let ((.def_603 (and .def_600 .def_602)))
(let ((.def_604 (and .def_585 .def_603)))
(let ((.def_573 (and .def_571 .def_572)))
(let ((.def_574 (and .def_306 .def_573)))
(let ((.def_575 (and .def_310 .def_574)))
(let ((.def_576 (and .def_298 .def_575)))
(let ((.def_577 (and .def_215 .def_576)))
(let ((.def_578 (and .def_235 .def_577)))
(let ((.def_579 (and .def_341 .def_578)))
(let ((.def_580 (and .def_247 .def_579)))
(let ((.def_581 (and .def_251 .def_580)))
(let ((.def_582 (and .def_263 .def_581)))
(let ((.def_271 (and .def_266 .def_270)))
(let ((.def_583 (and .def_271 .def_582)))
(let ((.def_586 (and .def_583 .def_585)))
(let ((.def_355 (and .def_278 .def_354)))
(let ((.def_275 (and .def_15 .def_274)))
(let ((.def_356 (and .def_275 .def_355)))
(let ((.def_146 (= tmp__19$main.next (to_real 0))))
(let ((.def_151 (not .def_146)))
(let ((.def_144 (= __INLINE_TEMP__21$main.next tmp__19$main.next)))
(let ((.def_141 (= __retres1__23$main.next __INLINE_TEMP__21$main.next)))
(let ((.def_27 (and .def_24 .def_26)))
(let ((.def_21 (= z_ev.SSA.1.ssa (to_real 2))))
(let ((.def_28 (and .def_21 .def_27)))
(let ((.def_31 (and .def_28 .def_30)))
(let ((.def_35 (and .def_31 .def_34)))
(let ((.def_38 (and .def_35 .def_37)))
(let ((.def_41 (and .def_38 .def_40)))
(let ((.def_44 (and .def_41 .def_43)))
(let ((.def_47 (and .def_44 .def_46)))
(let ((.def_50 (and .def_47 .def_49)))
(let ((.def_53 (and .def_50 .def_52)))
(let ((.def_56 (and .def_53 .def_55)))
(let ((.def_59 (and .def_56 .def_58)))
(let ((.def_62 (and .def_59 .def_61)))
(let ((.def_65 (and .def_62 .def_64)))
(let ((.def_68 (and .def_65 .def_67)))
(let ((.def_19 (= comp_m1_st.SSA.1.ssa (to_real 2))))
(let ((.def_69 (and .def_19 .def_68)))
(let ((.def_75 (and .def_37 .def_69)))
(let ((.def_77 (and .def_75 .def_76)))
(let ((.def_71 (and .def_69 .def_70)))
(let ((.def_74 (and .def_71 .def_73)))
(let ((.def_78 (or .def_74 .def_77)))
(let ((.def_84 (and .def_46 .def_78)))
(let ((.def_86 (and .def_84 .def_85)))
(let ((.def_80 (and .def_78 .def_79)))
(let ((.def_83 (and .def_80 .def_82)))
(let ((.def_87 (or .def_83 .def_86)))
(let ((.def_93 (and .def_55 .def_87)))
(let ((.def_95 (and .def_93 .def_94)))
(let ((.def_89 (and .def_87 .def_88)))
(let ((.def_92 (and .def_89 .def_91)))
(let ((.def_96 (or .def_92 .def_95)))
(let ((.def_102 (and .def_64 .def_96)))
(let ((.def_104 (and .def_102 .def_103)))
(let ((.def_98 (and .def_96 .def_97)))
(let ((.def_101 (and .def_98 .def_100)))
(let ((.def_105 (or .def_101 .def_104)))
(let ((.def_112 (and .def_105 .def_106)))
(let ((.def_114 (and .def_112 .def_113)))
(let ((.def_108 (and .def_105 .def_107)))
(let ((.def_111 (and .def_108 .def_110)))
(let ((.def_115 (or .def_111 .def_114)))
(let ((.def_117 (and .def_115 .def_116)))
(let ((.def_126 (and .def_117 .def_125)))
(let ((.def_131 (and .def_126 .def_130)))
(let ((.def_137 (and .def_131 .def_136)))
(let ((.def_135 (= __retres1__23$main.next (to_real 0))))
(let ((.def_138 (and .def_135 .def_137)))
(let ((.def_132 (and .def_103 .def_131)))
(let ((.def_120 (= __retres1__23$main.next (to_real 1))))
(let ((.def_133 (and .def_120 .def_132)))
(let ((.def_127 (and .def_94 .def_126)))
(let ((.def_128 (and .def_120 .def_127)))
(let ((.def_122 (and .def_76 .def_115)))
(let ((.def_123 (and .def_120 .def_122)))
(let ((.def_118 (and .def_85 .def_117)))
(let ((.def_121 (and .def_118 .def_120)))
(let ((.def_124 (or .def_121 .def_123)))
(let ((.def_129 (or .def_124 .def_128)))
(let ((.def_134 (or .def_129 .def_133)))
(let ((.def_139 (or .def_134 .def_138)))
(let ((.def_142 (and .def_139 .def_141)))
(let ((.def_145 (and .def_142 .def_144)))
(let ((.def_152 (and .def_145 .def_151)))
(let ((.def_154 (and .def_152 .def_153)))
(let ((.def_149 (= comp_m1_st.SSA.1.ssa comp_m1_st.next)))
(let ((.def_147 (and .def_145 .def_146)))
(let ((.def_150 (and .def_147 .def_149)))
(let ((.def_155 (or .def_150 .def_154)))
(let ((.def_160 (and .def_76 .def_155)))
(let ((.def_162 (and .def_160 .def_161)))
(let ((.def_156 (and .def_116 .def_155)))
(let ((.def_159 (and .def_156 .def_158)))
(let ((.def_163 (or .def_159 .def_162)))
(let ((.def_168 (and .def_85 .def_163)))
(let ((.def_170 (and .def_168 .def_169)))
(let ((.def_164 (and .def_125 .def_163)))
(let ((.def_167 (and .def_164 .def_166)))
(let ((.def_171 (or .def_167 .def_170)))
(let ((.def_176 (and .def_94 .def_171)))
(let ((.def_178 (and .def_176 .def_177)))
(let ((.def_172 (and .def_130 .def_171)))
(let ((.def_175 (and .def_172 .def_174)))
(let ((.def_179 (or .def_175 .def_178)))
(let ((.def_184 (and .def_103 .def_179)))
(let ((.def_186 (and .def_184 .def_185)))
(let ((.def_180 (and .def_136 .def_179)))
(let ((.def_183 (and .def_180 .def_182)))
(let ((.def_187 (or .def_183 .def_186)))
(let ((.def_193 (and .def_113 .def_187)))
(let ((.def_195 (and .def_193 .def_194)))
(let ((.def_189 (and .def_187 .def_188)))
(let ((.def_192 (and .def_189 .def_191)))
(let ((.def_196 (or .def_192 .def_195)))
(let ((.def_200 (and .def_196 .def_199)))
(let ((.def_204 (and .def_200 .def_203)))
(let ((.def_208 (and .def_204 .def_207)))
(let ((.def_212 (and .def_208 .def_211)))
(let ((.def_216 (and .def_212 .def_215)))
(let ((.def_220 (and .def_216 .def_219)))
(let ((.def_224 (and .def_220 .def_223)))
(let ((.def_228 (and .def_224 .def_227)))
(let ((.def_232 (and .def_228 .def_231)))
(let ((.def_236 (and .def_232 .def_235)))
(let ((.def_240 (and .def_236 .def_239)))
(let ((.def_244 (and .def_240 .def_243)))
(let ((.def_248 (and .def_244 .def_247)))
(let ((.def_252 (and .def_248 .def_251)))
(let ((.def_256 (and .def_252 .def_255)))
(let ((.def_260 (and .def_256 .def_259)))
(let ((.def_264 (and .def_260 .def_263)))
(let ((.def_272 (and .def_264 .def_271)))
(let ((.def_16 (and .def_13 .def_15)))
(let ((.def_273 (and .def_16 .def_272)))
(let ((.def_357 (or .def_273 .def_356)))
(let ((.def_587 (or .def_357 .def_586)))
(let ((.def_605 (or .def_587 .def_604)))
(let ((.def_732 (or .def_605 .def_731)))
(let ((.def_737 (or .def_732 .def_736)))
(let ((.def_740 (or .def_737 .def_739)))
.def_740))))))))))))))))))))))))))))))))))))))))))))))))))))))))))))))))))))))))))))))))))))))))))))))))))))))))))))))))))))))))))))))))))))))))))))))))))))))))))))))))))))))))))))))))))))))))))))))))))))))))))))))))))))))))))))))))))))))))))))))))))))))))))))))))))))))))))))))))))))))))))))))))))))))))))))))))))))))))))))))))))))))))))))))))))))))))))))))))))))))))))))))))))))))))))))))))))))))))))))))))))))))))))))))))))))))))))))))))))))))))))))))))))))))))))))))))))))))))))))))))))))))))))))))))))))))))))))))))))))))))))))))))))))))))))))))))))))))))))))))))))))))))))))))))))))))))))))))))))))))))))))))))))))))))))))))))))))))))))))) (state |_PC.0.next| |_PC.1.next| |_PC.2.next| |tmp___0__31$main.next| |__retres1__37$main.next| |__INLINE_TEMP__35$main.next| |__retres2__68$main.next| |s3__46$main.next| |__retres1__72$main.next| |__INLINE_TEMP__70$main.next| |tmp__56$main.next| |tmp__66$main.next| |s2__44$main.next| |__INLINE_TEMP__64$main.next| |__retres1__60$main.next| |__RET__$main.next| |tmp__29$main.next| |__INLINE_TEMP__58$main.next| |tmp__8$main.next| |s1__42$main.next| |d0_val.next| |d0_req_up.next| |b1_val.next| |b0_req_up.next| |z_val.next| |d1_val.next| |comp_m1_st.next| |z_req_up.next| |b0_val.next| |z_val_t.next| |d1_req_up.next| |b1_req_up.next| |b1_ev.next| |__retres1__23$main.next| |__INLINE_TEMP__21$main.next| |d1_ev.next| |b0_ev.next| |d0_ev.next| |tmp__19$main.next| |z_ev.next|))))
(assert (forall ((|_PC.2.next| Bool) (|z_ev| Real) (|z_ev.next| Real) (|tmp__19$main| Real) (|tmp__19$main.next| Real) (|d0_ev| Real) (|d0_ev.next| Real) (|b0_ev| Real) (|b0_ev.next| Real) (|d1_ev| Real) (|d1_ev.next| Real) (|__INLINE_TEMP__21$main| Real) (|__INLINE_TEMP__21$main.next| Real) (|__retres1__23$main| Real) (|__retres1__23$main.next| Real) (|b1_ev| Real) (|b1_ev.next| Real) (|b1_req_up| Real) (|b1_req_up.next| Real) (|d1_req_up| Real) (|d1_req_up.next| Real) (|tmp___0__31$main.next| Real) (|tmp___0__31$main| Real) (|z_val_t| Real) (|z_val_t.next| Real) (|__retres1__37$main.next| Real) (|__retres1__37$main| Real) (|b0_val| Real) (|b0_val.next| Real) (|__INLINE_TEMP__35$main.next| Real) (|__INLINE_TEMP__35$main| Real) (|__retres2__68$main.next| Real) (|__retres2__68$main| Real) (|z_req_up| Real) (|z_req_up.next| Real) (|s3__46$main.next| Real) (|s3__46$main| Real) (|__retres1__72$main.next| Real) (|__retres1__72$main| Real) (|__INLINE_TEMP__70$main.next| Real) (|__INLINE_TEMP__70$main| Real) (|comp_m1_st| Real) (|comp_m1_st.next| Real) (|tmp__56$main.next| Real) (|tmp__56$main| Real) (|d1_val| Real) (|d1_val.next| Real) (|tmp__66$main.next| Real) (|tmp__66$main| Real) (|s2__44$main.next| Real) (|s2__44$main| Real) (|__INLINE_TEMP__64$main.next| Real) (|__INLINE_TEMP__64$main| Real) (|z_val| Real) (|z_val.next| Real) (|__retres1__60$main.next| Real) (|__retres1__60$main| Real) (|__RET__$main.next| Real) (|__RET__$main| Real) (|tmp__29$main.next| Real) (|tmp__29$main| Real) (|__INLINE_TEMP__58$main.next| Real) (|__INLINE_TEMP__58$main| Real) (|b0_req_up| Real) (|b0_req_up.next| Real) (|tmp__8$main.next| Real) (|tmp__8$main| Real) (|s1__42$main.next| Real) (|s1__42$main| Real) (|b1_val| Real) (|b1_val.next| Real) (|d0_req_up| Real) (|d0_req_up.next| Real) (|d0_val| Real) (|d0_val.next| Real) (|s2__44$main.SSA.1.ssa| Real) (|__NONDET__33__20$main#0| Real) (|b0_ev.SSA.1.ssa| Real) (|b1_ev.SSA.1.ssa| Real) (|d0_ev.SSA.1.ssa| Real) (|d1_ev.SSA.1.ssa| Real) (|z_ev.SSA.1.ssa| Real) (|b0_ev.SSA.2.ssa| Real) (|b1_ev.SSA.2.ssa| Real) (|d0_ev.SSA.2.ssa| Real) (|d1_ev.SSA.2.ssa| Real) (|z_ev.SSA.2.ssa| Real) (|comp_m1_st.SSA.1.ssa| Real) (|_PC.1.next| Bool) (|_PC.0| Bool) (|_PC.0.next| Bool) (|_PC.2| Bool) (|_PC.1| Bool)) (=> (state |_PC.0| |_PC.1| |_PC.2| |tmp___0__31$main| |__retres1__37$main| |__INLINE_TEMP__35$main| |__retres2__68$main| |s3__46$main| |__retres1__72$main| |__INLINE_TEMP__70$main| |tmp__56$main| |tmp__66$main| |s2__44$main| |__INLINE_TEMP__64$main| |__retres1__60$main| |__RET__$main| |tmp__29$main| |__INLINE_TEMP__58$main| |tmp__8$main| |s1__42$main| |d0_val| |d0_req_up| |b1_val| |b0_req_up| |z_val| |d1_val| |comp_m1_st| |z_req_up| |b0_val| |z_val_t| |d1_req_up| |b1_req_up| |b1_ev| |__retres1__23$main| |__INLINE_TEMP__21$main| |d1_ev| |b0_ev| |d0_ev| |tmp__19$main| |z_ev|) (let ((.def_12 (not _PC.1)))
(let ((.def_274 (and _PC.0 .def_12)))
(let ((.def_738 (and _PC.2 .def_274)))
(let ((.def_741 (not .def_738)))
.def_741)))))))
(check-sat)
